; benchmark generated from python API
(set-info :status unknown)
(declare-datatypes ((IntState 0)) (((Mk1 (val1 Int)) (Mk2 (val2 Int)))))
 (declare-fun c_main_~i~6 () Int)
(declare-fun c_main_~j~6 () Int)
(declare-fun c_main_~k~6 () Int)
(assert
 (let (($x58 (<= c_main_~j~6 (* 2 c_main_~i~6))))
 (let (($x69 (exists ((main_~i~6_st IntState) (val!5 Int) )(let ((?x56 (val2 main_~i~6_st)))
 (let (($x96 (<= ?x56 3)))
 (let (($x52 (not (= main_~i~6_st (Mk1 val!5)))))
 (and $x52 (and $x96 (<= c_main_~j~6 (* 2 ?x56)) (<= ?x56 c_main_~k~6)))))))
 ))
 (let (($x79 (<= c_main_~i~6 3)))
 (let (($x86 (<= c_main_~i~6 2)))
 (let (($x111 (exists ((v_nnf_22 Int) )(let (($x70 (<= v_nnf_22 3)))
 (let ((?x21 (* 2 v_nnf_22)))
 (let (($x100 (<= c_main_~j~6 ?x21)))
 (and (<= (+ v_nnf_22 2) c_main_~k~6) $x100 $x70)))))
 ))
 (and (and $x79 $x111 $x58 $x86) (not (and $x79 $x69 $x58)))))))))
(check-sat)
